Version identifier: 12.10.0.0 | 2019-11-26 | 843d4de
CPXPARAM_WorkMem                                 16384
CPXPARAM_MIP_Limits_TreeMemory                   24576
Tried aggregator 2 times.
MIP Presolve eliminated 26 rows and 0 columns.
MIP Presolve added 52 rows and 0 columns.
Aggregator did 60 substitutions.
Reduced MIP has 118 rows, 105 columns, and 442 nonzeros.
Reduced MIP has 105 binaries, 0 generals, 0 SOSs, and 0 indicators.
Presolve time = 0,00 sec. (0,94 ticks)
Found incumbent of value 279,000000 after 0,00 sec. (1,07 ticks)
Probing time = 0,00 sec. (0,39 ticks)
Tried aggregator 1 time.
Detecting symmetries...
Reduced MIP has 118 rows, 105 columns, and 442 nonzeros.
Reduced MIP has 105 binaries, 0 generals, 0 SOSs, and 0 indicators.
Presolve time = 0,00 sec. (0,37 ticks)
Probing time = 0,00 sec. (0,38 ticks)
Clique table members: 376.
MIP emphasis: balance optimality and feasibility.
MIP search method: dynamic search.
Parallel mode: deterministic, using up to 16 threads.
Root relaxation solution time = 0,00 sec. (0,34 ticks)

        Nodes                                         Cuts/
   Node  Left     Objective  IInf  Best Integer    Best Bound    ItCnt     Gap

*     0+    0                          279,0000        0,0000           100,00%
*     0+    0                          250,0000        0,0000           100,00%
      0     0      148,0000   100      250,0000      148,0000       55   40,80%
      0     0      149,3071   100      250,0000     Cuts: 129       91   40,28%
      0     0      154,2087   100      250,0000     Cuts: 129      138   38,32%
      0     0      154,6090   100      250,0000     Cuts: 129      160   38,16%
      0     0      154,7063   100      250,0000     Cuts: 102      177   38,12%
*     0+    0                          246,0000      154,7063            37,11%
      0     0      154,8549   100      246,0000      Cuts: 70      196   37,05%
Detecting symmetries...
      0     0      154,9558   100      246,0000      Cuts: 76      214   37,01%
      0     0      154,9942   100      246,0000      Cuts: 58      226   36,99%
      0     0      155,0961   100      246,0000   ZeroHalf: 7      236   36,95%
      0     0      155,1960   100      246,0000      Cuts: 53      257   36,91%
      0     0      155,1990   100      246,0000   ZeroHalf: 6      265   36,91%
      0     0      155,2406   100      246,0000      Cuts: 70      286   36,89%
      0     0      155,2843   100      246,0000       Cuts: 6      305   36,88%
      0     0      155,2877   100      246,0000      Cuts: 72      309   36,87%
*     0+    0                          245,0000      155,2877            36,62%
      0     0        cutoff            245,0000      245,0000      309    0,00%
Elapsed time = 0,11 sec. (44,84 ticks, tree = 0,01 MB, solutions = 4)

Clique cuts applied:  15
Cover cuts applied:  33
Flow cuts applied:  10
Mixed integer rounding cuts applied:  19
Zero-half cuts applied:  8
Gomory fractional cuts applied:  4

Root node processing (before b&c):
  Real time             =    0,11 sec. (44,85 ticks)
Parallel b&c, 16 threads:
  Real time             =    0,00 sec. (0,00 ticks)
  Sync time (average)   =    0,00 sec.
  Wait time (average)   =    0,00 sec.
                          ------------
Total (root+branch&cut) =    0,11 sec. (44,85 ticks)
